Version identifier: 12.10.0.0 | 2019-11-26 | 843d4de
CPXPARAM_WorkMem                                 16384
CPXPARAM_MIP_Limits_TreeMemory                   24576
Tried aggregator 2 times.
Aggregator did 30 substitutions.
Reduced MIP has 139 rows, 180 columns, and 656 nonzeros.
Reduced MIP has 180 binaries, 0 generals, 0 SOSs, and 0 indicators.
Presolve time = 0,00 sec. (0,61 ticks)
Found incumbent of value 416,000000 after 0,00 sec. (1,05 ticks)
Probing time = 0,00 sec. (0,21 ticks)
Tried aggregator 1 time.
Detecting symmetries...
MIP Presolve eliminated 40 rows and 0 columns.
MIP Presolve added 80 rows and 0 columns.
Reduced MIP has 179 rows, 180 columns, and 696 nonzeros.
Reduced MIP has 180 binaries, 0 generals, 0 SOSs, and 0 indicators.
Presolve time = 0,00 sec. (0,85 ticks)
Probing time = 0,00 sec. (0,20 ticks)
Clique table members: 431.
MIP emphasis: balance optimality and feasibility.
MIP search method: dynamic search.
Parallel mode: deterministic, using up to 16 threads.
Root relaxation solution time = 0,00 sec. (0,64 ticks)

        Nodes                                         Cuts/
   Node  Left     Objective  IInf  Best Integer    Best Bound    ItCnt     Gap

*     0+    0                          416,0000        0,0000           100,00%
*     0+    0                          227,0000        0,0000           100,00%
*     0+    0                          220,0000        0,0000           100,00%
      0     0      104,0000    96      220,0000      104,0000       79   52,73%
      0     0      104,0000    96      220,0000     Cuts: 146      140   52,73%
      0     0      104,2536    96      220,0000      Cuts: 99      219   52,61%
      0     0      104,8614    96      220,0000     Cuts: 134      238   52,34%
      0     0      104,9558    96      220,0000   ZeroHalf: 2      246   52,29%
      0     0      105,0165    96      220,0000   ZeroHalf: 2      259   52,27%
      0     0      121,0831    96      220,0000     Cuts: 134      432   44,96%
      0     0      123,3961    96      220,0000     Cuts: 104      508   43,91%
      0     0      124,4943    96      220,0000      Cuts: 80      577   43,41%
      0     0      124,5840    96      220,0000      Cuts: 34      593   43,37%
      0     0      124,6181    96      220,0000   ZeroHalf: 7      604   43,36%
      0     0      124,8150    96      220,0000      Cuts: 13      630   43,27%
      0     0      124,9091    96      220,0000       Cuts: 5      658   43,22%
      0     0      124,9091    96      220,0000   ZeroHalf: 5      660   43,22%
*     0+    0                          204,0000      124,9091            38,77%
      0     2      124,9091   126      204,0000      143,0000      660   29,90%
Elapsed time = 0,21 sec. (85,83 ticks, tree = 0,02 MB, solutions = 4)

Clique cuts applied:  59
Cover cuts applied:  121
Mixed integer rounding cuts applied:  50
Zero-half cuts applied:  9
Gomory fractional cuts applied:  4

Root node processing (before b&c):
  Real time             =    0,20 sec. (85,56 ticks)
Parallel b&c, 16 threads:
  Real time             =    0,15 sec. (69,01 ticks)
  Sync time (average)   =    0,07 sec.
  Wait time (average)   =    0,00 sec.
                          ------------
Total (root+branch&cut) =    0,35 sec. (154,58 ticks)
